c FILE /home/rafael/Documents/HappySet/MIHS/inputs/happygen/output/graph_d_regular_k10_p0.2_v50_20241127_082657.txt
c SOURCE This is a d-regular graph formed for the happy graph colouring problem.
c DESCRIPTION It was generated using the problem generator of Rhyd Lewis
c
c GRAPH STATS
c Seed                             = -1702840794
c Number of Nodes                  = 50
c Number of colours k              = 10
c Number of pre-assignments        = 10
c Degree of all vertices           = 6
c Density                          = 0.122449
c 
c The degrees of nodes 1 to 50, respectively, are as follows 
c [6, 6, 6, 6, 6, 6, 6, 6, 6, 6, 6, 6, 6, 6, 6, 6, 6, 6, 6, 6, 6, 6, 6, 6, 6, 6, 
c  6, 6, 6, 6, 6, 6, 6, 6, 6, 6, 6, 6, 6, 6, 6, 6, 6, 6, 6, 6, 6, 6, 6, 6] 
c  
p edge 50 150 10
e 1 11
e 1 17
e 1 20
e 1 33
e 1 36
e 1 48
e 2 7
e 2 11
e 2 18
e 2 23
e 2 29
e 2 45
e 3 6
e 3 11
e 3 15
e 3 39
e 3 43
e 3 50
e 4 5
e 4 22
e 4 31
e 4 32
e 4 41
e 4 47
e 5 10
e 5 16
e 5 17
e 5 28
e 5 32
e 6 20
e 6 24
e 6 25
e 6 30
e 6 37
e 7 13
e 7 16
e 7 20
e 7 40
e 7 42
e 8 11
e 8 19
e 8 20
e 8 26
e 8 28
e 8 36
e 9 25
e 9 29
e 9 30
e 9 40
e 9 41
e 9 50
e 10 12
e 10 34
e 10 37
e 10 38
e 10 41
e 11 25
e 11 35
e 12 14
e 12 17
e 12 35
e 12 42
e 12 45
e 13 18
e 13 27
e 13 36
e 13 42
e 13 49
e 14 24
e 14 27
e 14 38
e 14 47
e 14 48
e 15 22
e 15 28
e 15 32
e 15 36
e 15 47
e 16 18
e 16 19
e 16 27
e 16 43
e 17 18
e 17 24
e 17 31
e 18 32
e 18 42
e 19 33
e 19 35
e 19 45
e 19 48
e 20 34
e 20 43
e 21 24
e 21 28
e 21 33
e 21 37
e 21 46
e 21 48
e 22 33
e 22 39
e 22 47
e 22 49
e 23 24
e 23 25
e 23 30
e 23 42
e 23 50
e 24 40
e 25 26
e 25 27
e 26 30
e 26 43
e 26 44
e 26 46
e 27 31
e 27 40
e 28 37
e 28 41
e 29 31
e 29 33
e 29 39
e 29 46
e 30 38
e 30 50
e 31 35
e 31 46
e 32 34
e 32 44
e 33 41
e 34 38
e 34 39
e 34 44
e 35 38
e 35 45
e 36 37
e 36 43
e 37 44
e 38 46
e 39 40
e 39 49
e 40 48
e 41 42
e 43 45
e 44 49
e 44 50
e 45 46
e 47 49
e 47 50
e 48 49
n 7 1
n 8 10
n 12 8
n 22 4
n 27 9
n 29 2
n 34 5
n 41 3
n 48 7
n 50 6
